decision_x1=[0,4];
decision_x2=[0,4];
decision_x3=[0,4];
decision_x4=[0,4];
decision_x5=[0,4];
random_y1=[0,4];
constraint_x2_x1=[
0,1,6.2|
0,2,9.6|
0,3,1.3|
0,4,0.4|
1,0,8.3|
1,2,6.3|
1,3,7.1|
1,4,6.8|
2,0,3.2|
2,1,6.7|
2,3,5.2|
2,4,1.1|
3,0,2.1|
3,1,1.5|
3,2,9.1|
3,4,4.5|
4,0,7.2|
4,1,9.7|
4,2,4|
4,3,1.1|
];
constraint_x3_x1=[
0,1,6.2|
0,2,6.2|
0,3,1.8|
0,4,10|
1,0,3.4|
1,2,6.4|
1,3,5.1|
1,4,1.1|
2,0,8.4|
2,1,6.2|
2,3,2.4|
2,4,3.9|
3,0,10|
3,1,8|
3,2,3.8|
3,4,7.6|
4,0,7.8|
4,1,1.6|
4,2,5|
4,3,3.3|
];
constraint_x3_x2=[
0,1,8.7|
0,2,0.4|
0,3,9.1|
0,4,2.5|
1,0,2|
1,2,6.4|
1,3,8.9|
1,4,5.3|
2,0,3.7|
2,1,6.3|
2,3,5.1|
2,4,8.8|
3,0,2.3|
3,1,4.8|
3,2,3.8|
3,4,5.2|
4,0,6.6|
4,1,4.2|
4,2,5.7|
4,3,0.91|
];
constraint_x4_x1=[
0,1,8.2|
0,2,1.2|
0,3,4.7|
0,4,8.7|
1,0,8.8|
1,2,9.4|
1,3,0.83|
1,4,2|
2,0,5.3|
2,1,2.9|
2,3,9.7|
2,4,1.4|
3,0,5.7|
3,1,7|
3,2,7.5|
3,4,1.5|
4,0,0.6|
4,1,7.5|
4,2,5.8|
4,3,3.6|
];
constraint_x5_x2=[
0,1,2|
0,2,9.8|
0,3,5.2|
0,4,2.3|
1,0,8.7|
1,2,7.6|
1,3,3.2|
1,4,1.4|
2,0,4.4|
2,1,4.6|
2,3,3.8|
2,4,2.1|
3,0,7.1|
3,1,3|
3,2,5.9|
3,4,2|
4,0,1.5|
4,1,4.6|
4,2,5.9|
4,3,1.3|
];
constraint_x1_y1=[
0,0,0.56|
0,1,7.1|
0,2,1.2|
0,3,3.8|
0,4,0.93|
1,0,5.3|
1,1,9.1|
1,2,8.6|
1,3,1|
1,4,5.4|
2,0,6.8|
2,1,5.7|
2,2,0.71|
2,3,1.5|
2,4,7.7|
3,0,6.3|
3,1,6.4|
3,2,8.3|
3,3,0.59|
3,4,4.1|
4,0,9.6|
4,1,4.7|
4,2,7.3|
4,3,5.7|
4,4,7.5|
];
initial_distribution_y1=[0.2,0.28,0.36,0.042,0.11];
transition_y1=[
0.25,0.068,0.14,0.38,0.16|
0.25,0.064,0.23,0.24,0.22|
0.26,0.16,0.015,0.36,0.21|
0.035,0.3,0.18,0.26,0.23|
0.065,0.21,0.31,0.14,0.28|
];
